100 1399
485 485 776 970 450 582 180 810 540 540 873 291 388 810 810 630 679 360 679 900 873 485 360 485 90 720 720 970 810 540 679 291 360 194 720 180 630 630 180 270 360 360 900 97 97 970 900 194 630 630 360 97 388 97 679 720 810 810 810 97 582 810 873 450 810 540 720 291 900 540 630 360 970 970 388 873 776 900 194 450 630 388 291 720 776 900 180 810 900 720 194 97 810 388 194 810 776 810 97 450 
575 575 920 1150 275 690 110 495 330 330 1035 345 460 495 495 385 805 220 805 550 1035 575 220 575 55 440 440 1150 495 330 805 345 220 230 440 110 385 385 110 165 220 220 550 115 115 1150 550 230 385 385 220 115 460 115 805 440 495 495 495 115 690 495 1035 275 495 330 440 345 550 330 385 220 1150 1150 460 1035 920 550 230 275 385 460 345 440 920 550 110 495 550 440 230 115 495 460 230 495 920 495 115 275 
